20170616 20 0 0 0
20160518 30 0 0 0
20150612 20 0 0 0
20140618 50 0 0 0
20130613 60 0 0 0
20120612 50 0 0 0
20110516 60 0 0 0
20100602 50 0 0 0
20090511 30 12000 0 0
20080326 40 0 0 0
20070525 60 0 0 0
20060721 80 0 0 0
20060116 0 3000 0 0
20050711 250 10000 0 0
20040601 200 0 0 0
20030529 230 0 0 0
20020520 260 0 0 0
20010608 300 0 0 0
